p cnf 152 142
17 0
-18 -34 -1 0
18 34 -1 0
18 -34 1 0
-18 34 1 0
-19 -35 -2 0
19 35 -2 0
19 -35 2 0
-19 35 2 0
-20 -36 -3 0
20 36 -3 0
20 -36 3 0
-20 36 3 0
-21 -37 -4 0
21 37 -4 0
21 -37 4 0
-21 37 4 0
-22 -38 -5 0
22 38 -5 0
22 -38 5 0
-22 38 5 0
-23 -39 -6 0
23 39 -6 0
23 -39 6 0
-23 39 6 0
-24 -40 -7 0
24 40 -7 0
24 -40 7 0
-24 40 7 0
-25 -41 -8 0
25 41 -8 0
25 -41 8 0
-25 41 8 0
-26 -42 -9 0
26 42 -9 0
26 -42 9 0
-26 42 9 0
-27 -43 -10 0
27 43 -10 0
27 -43 10 0
-27 43 10 0
-28 -44 -11 0
28 44 -11 0
28 -44 11 0
-28 44 11 0
-29 -45 -12 0
29 45 -12 0
29 -45 12 0
-29 45 12 0
-30 -46 -13 0
30 46 -13 0
30 -46 13 0
-30 46 13 0
-31 -47 -14 0
31 47 -14 0
31 -47 14 0
-31 47 14 0
-32 -48 -15 0
32 48 -15 0
32 -48 15 0
-32 48 15 0
-33 -49 -16 0
33 49 -16 0
33 -49 16 0
-33 49 16 0
18 -114 0
-18 114 0
19 -115 0
-19 115 0
20 -116 0
-20 116 0
21 -117 0
-21 117 0
22 -118 0
-22 118 0
23 -119 0
-23 119 0
24 -120 0
-24 120 0
25 -121 0
-25 121 0
26 -122 0
-26 122 0
27 -123 0
-27 123 0
28 -124 0
-28 124 0
29 -125 0
-29 125 0
30 -126 0
-30 126 0
31 -127 0
-31 127 0
32 -128 0
-32 128 0
33 -129 0
-33 129 0
34 -130 0
-34 130 0
35 -131 0
-35 131 0
36 -132 0
-36 132 0
37 -133 0
-37 133 0
38 -134 0
-38 134 0
39 -135 0
-39 135 0
40 -136 0
-40 136 0
41 -137 0
-41 137 0
42 -138 0
-42 138 0
43 -139 0
-43 139 0
44 -140 0
-44 140 0
45 -141 0
-45 141 0
46 -142 0
-46 142 0
47 -143 0
-47 143 0
48 -144 0
-48 144 0
49 -145 0
-49 145 0
-146 -148 -150 0
146 148 -150 0
-146 148 150 0
146 -148 150 0
-147 -149 -151 0
147 149 -151 0
-147 149 151 0
147 -149 151 0
-150 -152 0
-151 -152 0
150 151 152 0
-17 152 0
17 -152 0
c __CPROVER_malloc_is_new_array#1 FALSE
c mix_copy::1::y!0@1#1 82 83 84 85 86 87 88 89 90 91 92 93 94 95 96 97 98 99 100 101 102 103 104 105 106 107 108 109 110 111 112 113
c mix_copy::1::__return_value!0@1#2 1 2 3 4 5 6 7 8 9 10 11 12 13 14 15 16 1 2 3 4 5 6 7 8 9 10 11 12 13 14 15 16
c mix_copy::x!0@1#1 18 19 20 21 22 23 24 25 26 27 28 29 30 31 32 33 34 35 36 37 38 39 40 41 42 43 44 45 46 47 48 49
c __CPROVER_malloc_object#1 FALSE FALSE FALSE FALSE FALSE FALSE FALSE FALSE FALSE FALSE FALSE FALSE FALSE FALSE FALSE FALSE FALSE FALSE FALSE FALSE FALSE FALSE FALSE FALSE FALSE FALSE FALSE FALSE FALSE FALSE FALSE FALSE
c _start::x!0#1 18 19 20 21 22 23 24 25 26 27 28 29 30 31 32 33 34 35 36 37 38 39 40 41 42 43 44 45 46 47 48 49
c mix_copy::1::y!0@1#2 1 2 3 4 5 6 7 8 9 10 11 12 13 14 15 16 FALSE FALSE FALSE FALSE FALSE FALSE FALSE FALSE FALSE FALSE FALSE FALSE FALSE FALSE FALSE FALSE
c __CPROVER_deallocated#1 FALSE FALSE FALSE FALSE FALSE FALSE FALSE FALSE FALSE FALSE FALSE FALSE FALSE FALSE FALSE FALSE FALSE FALSE FALSE FALSE FALSE FALSE FALSE FALSE FALSE FALSE FALSE FALSE FALSE FALSE FALSE FALSE
c __CPROVER_malloc_size#1 FALSE FALSE FALSE FALSE FALSE FALSE FALSE FALSE FALSE FALSE FALSE FALSE FALSE FALSE FALSE FALSE FALSE FALSE FALSE FALSE FALSE FALSE FALSE FALSE FALSE FALSE FALSE FALSE FALSE FALSE FALSE FALSE
c mix_copy::1::__return_value!0@1#1 50 51 52 53 54 55 56 57 58 59 60 61 62 63 64 65 66 67 68 69 70 71 72 73 74 75 76 77 78 79 80 81
c __CPROVER_dead_object#1 FALSE FALSE FALSE FALSE FALSE FALSE FALSE FALSE FALSE FALSE FALSE FALSE FALSE FALSE FALSE FALSE FALSE FALSE FALSE FALSE FALSE FALSE FALSE FALSE FALSE FALSE FALSE FALSE FALSE FALSE FALSE FALSE
c __CPROVER_memory_leak#1 FALSE FALSE FALSE FALSE FALSE FALSE FALSE FALSE FALSE FALSE FALSE FALSE FALSE FALSE FALSE FALSE FALSE FALSE FALSE FALSE FALSE FALSE FALSE FALSE FALSE FALSE FALSE FALSE FALSE FALSE FALSE FALSE
c __CPROVER_next_thread_id#1 FALSE FALSE FALSE FALSE FALSE FALSE FALSE FALSE FALSE FALSE FALSE FALSE FALSE FALSE FALSE FALSE FALSE FALSE FALSE FALSE FALSE FALSE FALSE FALSE FALSE FALSE FALSE FALSE FALSE FALSE FALSE FALSE
c symex::io::0 114 115 116 117 118 119 120 121 122 123 124 125 126 127 128 129 130 131 132 133 134 135 136 137 138 139 140 141 142 143 144 145
c __CPROVER_pipe_count#1 FALSE FALSE FALSE FALSE FALSE FALSE FALSE FALSE FALSE FALSE FALSE FALSE FALSE FALSE FALSE FALSE FALSE FALSE FALSE FALSE FALSE FALSE FALSE FALSE FALSE FALSE FALSE FALSE FALSE FALSE FALSE FALSE
c __CPROVER_rounding_mode!0#1 FALSE FALSE FALSE FALSE FALSE FALSE FALSE FALSE FALSE FALSE FALSE FALSE FALSE FALSE FALSE FALSE FALSE FALSE FALSE FALSE FALSE FALSE FALSE FALSE FALSE FALSE FALSE FALSE FALSE FALSE FALSE FALSE
c __CPROVER_thread_id!0#1 FALSE FALSE FALSE FALSE FALSE FALSE FALSE FALSE FALSE FALSE FALSE FALSE FALSE FALSE FALSE FALSE FALSE FALSE FALSE FALSE FALSE FALSE FALSE FALSE FALSE FALSE FALSE FALSE FALSE FALSE FALSE FALSE
c ind 1 2 3 4 5 6 7 8 9 10 0
c ind 11 12 13 14 15 16 0
cr 1 2 3 4 5 6 7 8 9 10 11 12 13 14 15 16
